
  32    4
  10   10   10   10

   0   0   0   0   0   7 2 3 4 6 8 9 14 
   3   1   1   1   0   4 15 10 7 5 
   1   0   5   5   1   6 19 17 15 13 12 10 
   4   6   5   3   0   5 16 15 13 12 11 
   5   0   5   3   5   5 31 19 17 16 13 
   9   5   0   6   6   2 16 7 
  10   6   6   7   0   5 31 22 19 18 12 
   4   4   0   5   5   3 25 18 10 
   3   4   5   0   4   6 31 26 21 20 19 18 
  10   3   0   5   3   4 31 21 20 16 
   5   4   4   0   5   6 31 30 24 22 20 19 
   9   4   0   6   3   6 30 26 25 24 21 20 
   8   0   4   5   2   5 25 22 21 20 18 
   8   4   2   4   0   5 31 30 26 21 18 
   6   8   6   0   4   5 31 26 25 22 20 
   9   0   2   5   4   5 30 26 24 23 22 
   8   3   3   3   0   4 30 25 22 20 
   8   0   4   3   1   2 24 23 
   7   6   0   3   5   3 29 28 25 
  10   6   5   3   0   2 27 23 
   9   4   0   1   6   2 27 23 
   8   3   3   4   0   3 29 28 27 
   8   4   0   2   3   2 29 28 
   9   3   4   0   5   1 27 
   9   4   5   4   0   1 27 
   2   4   0   4   5   1 28 
   2   2   5   0   3   1 32
   2   3   0   4   7   1 32
   2   0   3   7   5   1 32
   8   1   0   3   2   1 32
   7   0   3   4   4   1 32
   0   0   0   0   0   0 
